NAME : pcb442
COMMENT : Drilling problem (Groetschel/Juenger/Reinelt)
TYPE : TSP
DIMENSION : 28
EDGE_WEIGHT_TYPE : EUC_2D
NODE_COORD_SECTION
1 -4 2	
2 -4 0
3 -6 0
4 -6 -2
5 -4 -2
6 -4 -4
30 0 0
7 4  2
8 4 0
9 6 0
10 6 -2
11 4 -2
12 4 -4
40 0 0
13 -4 -6
14 -2 -6
15 -2 -8
16 0 -8
17 -2 4
18 -0 4
50 0 0 
19  2 4
20 0 4
21 2 4
22 -4 4
23 -2 6
24 0 -6
60 0 0
EOF
